Welcome to the CBC MILP Solver 
Version: 2.10.3 
Build Date: Dec 15 2019 

command line - /work/zhang-x2/users/yc2632/miniconda3/envs/newpt2/lib/python3.9/site-packages/pulp/solverdir/cbc/linux/64/cbc /tmp/979693c57b9848e88619bfcfde7c1b79-pulp.mps sec 900 timeMode elapsed branch printingOptions all solution /tmp/979693c57b9848e88619bfcfde7c1b79-pulp.sol (default strategy 1)
At line 2 NAME          MODEL
At line 3 ROWS
At line 41066 COLUMNS
At line 171605 RHS
At line 212667 BOUNDS
At line 232070 ENDATA
Problem MODEL has 41061 rows, 19402 columns and 103799 elements
Coin0008I MODEL read with 0 errors
seconds was changed from 1e+100 to 900
Option for timeMode changed from cpu to elapsed
Continuous objective value is 76908.6 - 0.67 seconds
Cgl0003I 0 fixed, 0 tightened bounds, 19696 strengthened rows, 0 substitutions
Cgl0003I 0 fixed, 0 tightened bounds, 13 strengthened rows, 0 substitutions
Cgl0004I processed model has 38519 rows, 19381 columns (10265 integer (10265 of which binary)) and 115577 elements
Cutoff increment increased from 1e-05 to 0.9999
Cbc0038I Initial state - 2961 integers unsatisfied sum - 308.375
Cbc0038I Pass   1: (2.98 seconds) suminf.    0.00000 (0) obj. 174279 iterations 5974
Cbc0038I Pass   2: (3.01 seconds) suminf.    0.00000 (0) obj. 174279 iterations 21
Cbc0038I Solution found of 174279
Cbc0038I Relaxing continuous gives 174279
Cbc0038I Before mini branch and bound, 7296 integers at bound fixed and 8864 continuous
Cbc0038I Full problem 38519 rows 19381 columns, reduced to 1324 rows 421 columns
Cbc0038I Mini branch and bound did not improve solution (3.14 seconds)
Cbc0038I Round again with cutoff of 166256
Cbc0038I Reduced cost fixing fixed 1 variables on major pass 2
Cbc0038I Pass   3: (3.54 seconds) suminf.    7.27549 (19) obj. 166256 iterations 791
Cbc0038I Pass   4: (3.58 seconds) suminf.    7.27549 (19) obj. 166256 iterations 11
Cbc0038I Pass   5: (3.70 seconds) suminf.    6.90600 (15) obj. 166256 iterations 995
Cbc0038I Pass   6: (3.73 seconds) suminf.    6.90600 (15) obj. 166256 iterations 110
Cbc0038I Pass   7: (3.77 seconds) suminf.    5.11092 (13) obj. 166256 iterations 161
Cbc0038I Pass   8: (3.81 seconds) suminf.    5.11092 (13) obj. 166256 iterations 328
Cbc0038I Pass   9: (3.93 seconds) suminf.    6.24123 (13) obj. 166256 iterations 799
Cbc0038I Pass  10: (3.95 seconds) suminf.    6.24123 (13) obj. 166256 iterations 0
Cbc0038I Pass  11: (4.02 seconds) suminf.    5.11092 (13) obj. 166256 iterations 562
Cbc0038I Pass  12: (4.14 seconds) suminf.    9.05813 (22) obj. 166256 iterations 971
Cbc0038I Pass  13: (4.21 seconds) suminf.    5.60369 (14) obj. 166256 iterations 429
Cbc0038I Pass  14: (4.30 seconds) suminf.    6.07621 (13) obj. 166256 iterations 413
Cbc0038I Pass  15: (4.34 seconds) suminf.    6.07621 (13) obj. 166256 iterations 85
Cbc0038I Pass  16: (4.37 seconds) suminf.    5.20692 (13) obj. 166256 iterations 148
Cbc0038I Pass  17: (4.42 seconds) suminf.    5.20692 (13) obj. 166256 iterations 313
Cbc0038I Pass  18: (4.55 seconds) suminf.    6.25911 (13) obj. 166256 iterations 799
Cbc0038I Pass  19: (4.57 seconds) suminf.    6.25911 (13) obj. 166256 iterations 0
Cbc0038I Pass  20: (4.64 seconds) suminf.    5.20692 (13) obj. 166256 iterations 500
Cbc0038I Pass  21: (4.79 seconds) suminf.    6.89814 (14) obj. 166256 iterations 1141
Cbc0038I Pass  22: (4.86 seconds) suminf.    5.97974 (15) obj. 166256 iterations 513
Cbc0038I Pass  23: (4.89 seconds) suminf.    5.97974 (15) obj. 166256 iterations 111
Cbc0038I Pass  24: (5.00 seconds) suminf.    6.25911 (13) obj. 166256 iterations 572
Cbc0038I Pass  25: (5.02 seconds) suminf.    6.25911 (13) obj. 166256 iterations 2
Cbc0038I Pass  26: (5.10 seconds) suminf.    5.20692 (13) obj. 166256 iterations 521
Cbc0038I Pass  27: (5.13 seconds) suminf.    5.20692 (13) obj. 166256 iterations 59
Cbc0038I Pass  28: (5.26 seconds) suminf.    6.25911 (13) obj. 166256 iterations 799
Cbc0038I Pass  29: (5.33 seconds) suminf.    6.25911 (13) obj. 166256 iterations 457
Cbc0038I Pass  30: (5.37 seconds) suminf.    6.25911 (13) obj. 166256 iterations 363
Cbc0038I Pass  31: (5.45 seconds) suminf.    5.20692 (13) obj. 166256 iterations 467
Cbc0038I Pass  32: (5.47 seconds) suminf.    5.20692 (13) obj. 166256 iterations 63
Cbc0038I No solution found this major pass
Cbc0038I Before mini branch and bound, 7280 integers at bound fixed and 8845 continuous
Cbc0038I Full problem 38519 rows 19381 columns, reduced to 6089 rows 2147 columns
Cbc0038I Mini branch and bound did not improve solution (5.58 seconds)
Cbc0038I After 5.58 seconds - Feasibility pump exiting with objective of 174279 - took 3.42 seconds
Cbc0012I Integer solution of 174279 found by feasibility pump after 0 iterations and 0 nodes (5.59 seconds)
Cbc0038I Full problem 38519 rows 19381 columns, reduced to 11019 rows 5696 columns
Cbc0031I 169 added rows had average density of 4.7633136
Cbc0013I At root node, 169 cuts changed objective from 94059.75 to 136680 in 6 passes
Cbc0014I Cut generator 0 (Probing) - 3189 row cuts average 2.0 elements, 1 column cuts (1 active)  in 0.388 seconds - new frequency is 1
Cbc0014I Cut generator 1 (Gomory) - 1035 row cuts average 9.6 elements, 0 column cuts (0 active)  in 0.269 seconds - new frequency is 1
Cbc0014I Cut generator 2 (Knapsack) - 0 row cuts average 0.0 elements, 0 column cuts (0 active)  in 0.038 seconds - new frequency is -100
Cbc0014I Cut generator 3 (Clique) - 0 row cuts average 0.0 elements, 0 column cuts (0 active)  in 0.017 seconds - new frequency is -100
Cbc0014I Cut generator 4 (MixedIntegerRounding2) - 2 row cuts average 2.5 elements, 0 column cuts (0 active)  in 0.054 seconds - new frequency is -100
Cbc0014I Cut generator 5 (FlowCover) - 0 row cuts average 0.0 elements, 0 column cuts (0 active)  in 0.032 seconds - new frequency is -100
Cbc0014I Cut generator 6 (TwoMirCuts) - 1015 row cuts average 7.4 elements, 0 column cuts (0 active)  in 1.074 seconds - new frequency is 1
Cbc0010I After 0 nodes, 1 on tree, 174279 best solution, best possible 136680 (9.17 seconds)
Cbc0012I Integer solution of 136680 found by DiveCoefficient after 857 iterations and 2 nodes (11.40 seconds)
Cbc0001I Search completed - best objective 136680, took 857 iterations and 2 nodes (11.40 seconds)
Cbc0032I Strong branching done 66 times (480 iterations), fathomed 0 nodes and fixed 0 variables
Cbc0035I Maximum depth 2, 1 variables fixed on reduced cost
Cuts at root node changed objective from 94059.8 to 136680
Probing was tried 8 times and created 3190 cuts of which 0 were active after adding rounds of cuts (0.395 seconds)
Gomory was tried 8 times and created 1035 cuts of which 0 were active after adding rounds of cuts (0.278 seconds)
Knapsack was tried 6 times and created 0 cuts of which 0 were active after adding rounds of cuts (0.038 seconds)
Clique was tried 6 times and created 0 cuts of which 0 were active after adding rounds of cuts (0.017 seconds)
MixedIntegerRounding2 was tried 6 times and created 2 cuts of which 0 were active after adding rounds of cuts (0.054 seconds)
FlowCover was tried 6 times and created 0 cuts of which 0 were active after adding rounds of cuts (0.032 seconds)
TwoMirCuts was tried 8 times and created 1015 cuts of which 0 were active after adding rounds of cuts (1.085 seconds)
ZeroHalf was tried 1 times and created 0 cuts of which 0 were active after adding rounds of cuts (0.552 seconds)

Result - Optimal solution found

Objective value:                136680.00000000
Enumerated nodes:               2
Total iterations:               857
Time (CPU seconds):             11.70
Time (Wallclock seconds):       11.83

Option for printingOptions changed from normal to all
Total time (CPU seconds):       11.76   (Wallclock seconds):       11.90

Root classes: {'26'}
Status: Optimal
Solved x values:
['0.0', '121.0', '115.0', '363.0', '109.0', '1621.0', '345.0', '91.0', '1603.0', '466.0', '85.0', '460.0', '333.0', '206.0', '454.0', '73.0', '448.0', '1579.0', '61.0', '309.0', '1694.0', '55.0', '430.0', '303.0', '1688.0', '49.2', '424.0', '297.0', '170.0', '1555.0', '418.0', '7724.0', '285.0', '1670.0', '7718.0', '1918.0', '25.0', '1912.0', '146.0', '19.0', '140.0', '1652.0', '1646.0', '7.0', '255.0', '128.0', '1.0', '376.0', '116.0', '1749.0', '110.0', '1622.0', '485.0', '231.0', '104.0', '98.0', '92.0', '467.0', '340.0', '86.0', '461.0', '334.0', '207.0', '1592.0', '455.0', '449.0', '1580.0', '443.0', '1701.0', '1695.0', '1568.0', '431.0', '1689.0', '50.0', '298.0', '44.0', '1556.0', '419.1', '1677.0', '7725.0', '413.2', '159.0', '1671.0', '32.0', '7719.0', '1919.0', '26.2', '7713.0', '1913.0', '20.1', '1907.0', '14.2', '1647.0', '129.0', '377.0', '123.0', '117.0', '1750.0', '111.0', '1623.0', '105.0', '1617.0', '93.0', '468.0', '341.0', '87.0', '1599.0', '462.0', '335.0', '208.0', '81.0', '450.0', '444.2', '317.0', '184.0', '1696.0', '1690.0', '426.0', '299.0', '420.0', '293.0', '7726.0', '414.2', '287.0', '1672.0', '33.0', '7720.0', '408.0', '1920.0', '27.0', '7714.0', '1914.0', '148.0', '1660.0', '21.0', '1908.0', '1654.0', '15.2', '1648.0', '9.0', '3.0', '378.0', '124.0', '118.0', '1630.0', '112.0', '1745.0', '106.0', '94.0', '1606.0', '469.0', '342.0', '1600.0', '463.0', '336.0', '82.1', '457.0', '451.0', '197.0', '445.0', '1697.0', '1691.0', '52.0', '1564.0', '427.0', '173.0', '1685.0', '421.0', '294.0', '7727.0', '415.0', '1927.0', '1673.0', '409.0', '1921.0', '28.0', '1915.0', '1661.0', '22.0', '7709.0', '1909.2', '16.0', '137.0', '1649.0', '10.0', '1643.0', '4.0', '379.0', '119.0', '1631.0', '113.0', '361.0', '107.2', '355.0', '228.0', '95.0', '343.0', '89.0', '1601.0', '464.0', '337.0', '83.0', '1595.0', '458.2', '452.0', '325.0', '198.0', '1583.0', '446.0', '1698.0', '59.2', '1571.0', '434.0', '1565.0', '301.0', '1686.0', '1559.0', '422.0', '295.0', '41.0', '7728.0', '162.0', '1674.0', '7722.0', '1922.0', '404.0', '1916.0', '23.0', '7710.0', '525.0', '398.0', '1910.0', '144.0', '1650.0', '1644.0', '5.0', '380.0', '253.0', '126.0', '120.0', '1632.0', '114.0', '108.0', '1614.0', '344.0', '90.1', '465.0', '338.0', '84.0', '459.0', '453.0', '199.0', '72.0', '1584.0', '447.0', '60.2', '435.0', '181.0', '1693.0', '1566.0', '1687.0', '48.2', '1560.0', '423.0', '296.0', '7729.0', '417.0', '1675.0', '7723.0', '284.0', '1669.0', '30.0', '405.0', '1917.0', '151.0', '24.0', '1911.0', '145.0', '18.0', '1645.0', '381.0', '254.0']
